(set-logic HORN)
(declare-fun state (Int Int Int (Array Int Int) Int Int Int Int Bool Bool Bool Int Int Bool Bool Int Int Bool Bool Int Int Bool Int Int Int Bool Bool Bool Int Int Int Int) Bool)
(assert (forall ((|F_6| Int) (|.y.12| Int) (|.y.13| Int) (|G_6| (Array Int Int)) (|K_6| Int) (|A_7| Int) (|E_6| Int) (|B_7| Int) (|.loc.14| Bool) (|.loc.15| Bool) (|.loc.16| Bool) (|N_1| Int) (|L_2| Int) (|M_5| Bool) (|L_5| Bool) (|Q_1| Int) (|T_0| Int) (|N_4| Bool) (|W_0| Bool) (|U_0| Int) (|X_0| Int) (|B_8| Bool) (|F_7| Int) (|H_6| Int) (|E_7| Int) (|J_7| Bool) (|I_7| Bool) (|K_7| Bool) (|M_6| Int) (|H_7| Int) (|G_7| Int) (|P_1| Int) (|.loc.27| Bool) (|.loc.26| Bool) (|.y.22| Int) (|.y.21| Int) (|.y.23| Int) (|.y.17| Int) (|.y.20| (Array Int Int)) (|.y.24| Int) (|.loc.25| Bool) (|.y.18| Int) (|.y.19| Int) (|.xtv.1| Int) (|.xtv.2| Int) (|.xtv.3| Bool) (|.xtv.4| Bool) (|.xtv.5| Int) (|.xtv.6| Int) (|.xtv.7| Bool) (|.xtv.8| Bool) (|.xtv.9| Int) (|.xtv.10| Int) (|.xtv.11| Bool) (|.xtv.12| Int) (|.xtv.13| Int) (|.xtv.14| Int) (|.xtv.15| Bool) (|.xtv.16| Bool) (|.xtv.17| Bool) (|.xtv.18| Int) (|.xtv.19| Int) (|.xtv.20| Int) (|.xtv.21| Int)) (=> (and (and (not .loc.14) (not .loc.15)) (not .loc.16)) (state |F_6| |.y.12| |.y.13| |G_6| |K_6| |A_7| |E_6| |B_7| |.loc.14| |.loc.15| |.loc.16| |N_1| |L_2| |M_5| |L_5| |Q_1| |T_0| |N_4| |W_0| |U_0| |X_0| |B_8| |F_7| |H_6| |E_7| |J_7| |I_7| |K_7| |M_6| |H_7| |G_7| |P_1|))))
(assert (forall ((|F_6| Int) (|.y.12| Int) (|.y.13| Int) (|G_6| (Array Int Int)) (|K_6| Int) (|A_7| Int) (|E_6| Int) (|B_7| Int) (|.loc.14| Bool) (|.loc.15| Bool) (|.loc.16| Bool) (|N_1| Int) (|L_2| Int) (|M_5| Bool) (|L_5| Bool) (|Q_1| Int) (|T_0| Int) (|N_4| Bool) (|W_0| Bool) (|U_0| Int) (|X_0| Int) (|B_8| Bool) (|F_7| Int) (|H_6| Int) (|E_7| Int) (|J_7| Bool) (|I_7| Bool) (|K_7| Bool) (|M_6| Int) (|H_7| Int) (|G_7| Int) (|P_1| Int) (|.loc.27| Bool) (|.loc.26| Bool) (|.y.22| Int) (|.y.21| Int) (|.y.23| Int) (|.y.17| Int) (|.y.20| (Array Int Int)) (|.y.24| Int) (|.loc.25| Bool) (|.y.18| Int) (|.y.19| Int) (|.xtv.1| Int) (|.xtv.2| Int) (|.xtv.3| Bool) (|.xtv.4| Bool) (|.xtv.5| Int) (|.xtv.6| Int) (|.xtv.7| Bool) (|.xtv.8| Bool) (|.xtv.9| Int) (|.xtv.10| Int) (|.xtv.11| Bool) (|.xtv.12| Int) (|.xtv.13| Int) (|.xtv.14| Int) (|.xtv.15| Bool) (|.xtv.16| Bool) (|.xtv.17| Bool) (|.xtv.18| Int) (|.xtv.19| Int) (|.xtv.20| Int) (|.xtv.21| Int)) (=> (and (state |F_6| |.y.12| |.y.13| |G_6| |K_6| |A_7| |E_6| |B_7| |.loc.14| |.loc.15| |.loc.16| |N_1| |L_2| |M_5| |L_5| |Q_1| |T_0| |N_4| |W_0| |U_0| |X_0| |B_8| |F_7| |H_6| |E_7| |J_7| |I_7| |K_7| |M_6| |H_7| |G_7| |P_1|) (let ((.def_42 (not .loc.14))) (let ((.def_43 (not .loc.15))) (let ((.def_45 (not .loc.16))) (let ((.def_47 (select G_6 H_6))) (let ((.def_48 (<= .def_47 K_6))) (let ((.def_56 (<= F_6 0))) (let ((.def_77 (not (<= H_6 0)))) (let ((.def_82 (= (+ F_6 (+ E_6 (* (- 1) H_6))) 0))) (let ((.def_83 (not .def_56))) (let ((.def_85 (<= B_7 E_6))) (let ((.def_86 (not .def_85))) (let ((.def_88 (and (or .def_56 .def_77) (and (and .def_82 .def_83) .def_86)))) (let ((.def_92 (not .loc.26))) (let ((.def_102 (not .loc.27))) (let ((.def_105 (= .y.23 0))) (let ((.def_107 (<= B_7 K_6))) (let ((.def_110 (= F_6 .y.17))) (let ((.def_113 (= G_6 .y.20))) (let ((.def_118 (= B_7 .y.24))) (let ((.def_132 (= (+ E_6 (* (- 1) .y.23)) (- 1)))) (let ((.def_134 (= K_6 .y.21))) (let ((.def_136 (= A_7 .y.22))) (let ((.def_152 (not .loc.25))) (let ((.def_155 (not L_5))) (let ((.def_160 (not I_7))) (let ((.def_186 (and M_5 L_5))) (let ((.def_188 (not J_7))) (let ((.def_200 (not N_4))) (let ((.def_201 (not M_5))) (let ((.def_208 (or L_5 .def_201))) (let ((.def_240 (<= .y.12 0))) (let ((.def_244 (select G_6 .y.12))) (let ((.def_255 (and .loc.14 .def_45))) (let ((.def_264 (not .def_240))) (let ((.def_268 (<= K_6 .y.13))) (let ((.def_275 (not K_7))) (let ((.def_284 (or .def_155 .def_201))) (let ((.def_298 (not W_0))) (let ((.def_299 (or .def_200 .def_298))) (or (or (or (or (or (or (and (or (or (and (or (and .def_45 (and .loc.15 (and .loc.14 (not .def_48)))) (and (or (not (<= M_6 0)) .def_56) (and (not (= K_6 (select G_6 M_6))) (and (= (+ F_6 (+ E_6 (* (- 1) M_6))) 0) (and (not (<= .def_47 A_7)) (and .def_42 (and .loc.16 .def_43))))))) (and (and .def_88 .loc.27) .def_92)) (and (and (= E_6 .y.22) (and (= A_7 .y.21) (and (and (and (and (and (and .def_42 (and .loc.26 (and .loc.15 .def_45))) .def_102) .def_105) .def_107) .def_110) .def_113))) .def_118)) (and (and (and (and .def_118 (and .def_113 (and .def_110 (and .def_102 (and .loc.26 (and .def_45 (and .loc.15 (and .loc.14 (and .def_48 .def_88))))))))) .def_132) .def_134) .def_136)) .loc.25) (and (and .def_136 (and .def_134 (and .def_118 (and .def_113 (and .def_110 (and .def_105 (and .def_92 (and .loc.27 (and .def_45 (and .loc.15 (and .loc.14 .def_85))))))))))) .def_152)) (and (or .def_77 (or .def_56 .def_155)) (and (or (not (<= F_7 0)) (or .def_56 .def_160)) (and (or .def_155 (= N_4 (not (<= E_7 A_7)))) (and (or .def_155 (= M_6 .def_47)) (and (or .def_155 (= E_7 M_6)) (and (or .def_82 .def_155) (and (or .def_83 .def_155) (and (or .def_160 (= K_7 (= K_6 H_7))) (and (or .def_160 (= G_7 (select G_6 F_7))) (and (or .def_160 (= (+ F_6 (+ E_6 (* (- 1) F_7))) 0)) (and (or .def_83 .def_160) (and .def_152 (and .def_136 (and .def_134 (and .def_132 (and .def_118 (and .def_113 (and .def_110 (and .def_42 (and .def_43 (and .def_92 (and .loc.27 (and .loc.16 (and (or (and J_7 I_7) .def_186) (and (or I_7 .def_188) (and (or .def_160 (and L_5 I_7)) (and (or .def_160 (= H_7 G_7)) (and (and (or .def_155 (and L_5 B_8)) (and (or .def_155 (or N_4 .def_160)) (and (or .def_188 (or K_7 .def_160)) (and .def_86 (or .def_155 (or .def_200 .def_201)))))) .def_208))))))))))))))))))))))))))))) (and (= K_6 .y.24) (and (= .y.12 .y.17) (and (and (or .def_77 .def_240) (and (= (+ .y.12 (* (- 1) H_6)) (- 1)) (and (and (= .y.23 (ite (not (<= .def_47 .def_244)) .def_244 .def_47)) (and (= .y.22 (ite (not (<= .def_244 .def_47)) .def_244 .def_47)) (and (= .y.21 2) (and .def_152 (and .def_113 (and .def_102 (and .def_43 (and .loc.26 .def_255)))))))) .def_264))) .def_268)))) (and (or (not (<= G_7 0)) (or .def_56 .def_275)) (and (or .def_186 (or K_7 (and N_4 W_0))) (and (or I_7 (or .def_155 .def_275)) (and (or (= A_7 Q_1) .def_284) (and (or .def_284 (= E_6 T_0)) (and (or .def_160 .def_284) (and (or .def_77 (or .def_56 .def_200)) (and (or (or .def_200 (not .def_107)) (not B_8)) (and (or J_7 (or .def_155 .def_200)) (and (or (= L_2 U_0) .def_299) (and (or .def_299 (= A_7 X_0)) (and (or .def_188 .def_299) (and (or .def_275 (= A_7 N_1)) (and (or .def_275 (= M_6 P_1)) (and (or .def_275 (= N_1 .y.22)) (and (or .def_275 (= P_1 .y.23)) (and (or .def_275 (= (+ F_6 (+ K_6 (* (- 1) G_7))) 0)) (and (or .def_275 (= H_7 (select G_6 G_7))) (and (or .def_275 (= M_6 H_7)) (and (or .def_83 .def_275) (and (or .def_275 (and L_5 K_7)) (and (or .def_155 (= I_7 (not (<= L_2 E_6)))) (and (or .def_155 (and L_5 N_4)) (and (or .def_200 (= J_7 (not (<= A_7 E_7)))) (and (or .def_200 (= (+ F_6 (+ K_6 (* (- 1) H_6))) 0)) (and (or .def_200 (= F_7 E_7)) (and (or .def_200 (= F_7 .def_47)) (and (or .def_200 (= L_2 F_7)) (and (or .def_83 .def_200) (and (or .def_200 (and N_4 B_8)) (and (or N_4 .def_298) (and (= (+ K_6 (* (- 1) .y.21)) (- 1)) (and (or .def_299 (= X_0 .y.23)) (and (or .def_299 (= U_0 .y.22)) (and (or .def_284 (= T_0 .y.23)) (and (or .def_284 (= Q_1 .y.22)) (and .def_152 (and .def_118 (and .def_113 (and .def_110 (and .def_102 (and .def_42 (and .loc.26 (and .def_45 (and .loc.15 .def_208)))))))))))))))))))))))))))))))))))))))))))))) (and (not (<= .y.18 0)) (and (not (<= .y.21 0)) (and (= .y.19 0) (and .def_110 (and .def_102 (and .def_42 (and .def_43 (and .def_92 (and .def_45 .loc.25)))))))))) (and (= .y.12 .y.18) (and (not .def_268) (and (or .def_240 (not (<= L_2 0))) (and (= (+ .y.12 (+ .y.13 (* (- 1) L_2))) 0) (and (= (+ .y.13 (* (- 1) .y.19)) (- 1)) (and (= .y.20 (store G_6 L_2 N_1)) (and .def_264 (and .def_134 (and .def_110 (and .def_102 (and .def_43 (and .def_92 (and .loc.25 .def_255)))))))))))))))))))))))))))))))))))))))))))))))))))))) (state |.y.17| |.y.18| |.y.19| |.y.20| |.y.21| |.y.22| |.y.23| |.y.24| |.loc.25| |.loc.26| |.loc.27| |.xtv.1| |.xtv.2| |.xtv.3| |.xtv.4| |.xtv.5| |.xtv.6| |.xtv.7| |.xtv.8| |.xtv.9| |.xtv.10| |.xtv.11| |.xtv.12| |.xtv.13| |.xtv.14| |.xtv.15| |.xtv.16| |.xtv.17| |.xtv.18| |.xtv.19| |.xtv.20| |.xtv.21|))))
(assert (forall ((|F_6| Int) (|.y.12| Int) (|.y.13| Int) (|G_6| (Array Int Int)) (|K_6| Int) (|A_7| Int) (|E_6| Int) (|B_7| Int) (|.loc.14| Bool) (|.loc.15| Bool) (|.loc.16| Bool) (|N_1| Int) (|L_2| Int) (|M_5| Bool) (|L_5| Bool) (|Q_1| Int) (|T_0| Int) (|N_4| Bool) (|W_0| Bool) (|U_0| Int) (|X_0| Int) (|B_8| Bool) (|F_7| Int) (|H_6| Int) (|E_7| Int) (|J_7| Bool) (|I_7| Bool) (|K_7| Bool) (|M_6| Int) (|H_7| Int) (|G_7| Int) (|P_1| Int) (|.loc.27| Bool) (|.loc.26| Bool) (|.y.22| Int) (|.y.21| Int) (|.y.23| Int) (|.y.17| Int) (|.y.20| (Array Int Int)) (|.y.24| Int) (|.loc.25| Bool) (|.y.18| Int) (|.y.19| Int) (|.xtv.1| Int) (|.xtv.2| Int) (|.xtv.3| Bool) (|.xtv.4| Bool) (|.xtv.5| Int) (|.xtv.6| Int) (|.xtv.7| Bool) (|.xtv.8| Bool) (|.xtv.9| Int) (|.xtv.10| Int) (|.xtv.11| Bool) (|.xtv.12| Int) (|.xtv.13| Int) (|.xtv.14| Int) (|.xtv.15| Bool) (|.xtv.16| Bool) (|.xtv.17| Bool) (|.xtv.18| Int) (|.xtv.19| Int) (|.xtv.20| Int) (|.xtv.21| Int)) (=> (state |F_6| |.y.12| |.y.13| |G_6| |K_6| |A_7| |E_6| |B_7| |.loc.14| |.loc.15| |.loc.16| |N_1| |L_2| |M_5| |L_5| |Q_1| |T_0| |N_4| |W_0| |U_0| |X_0| |B_8| |F_7| |H_6| |E_7| |J_7| |I_7| |K_7| |M_6| |H_7| |G_7| |P_1|) (not (and .loc.16 (and .loc.14 (not .loc.15)))))))
(check-sat)
